50
100
100
99
98
95
93
90
87
85
84
84
83
83
81
81
80
79
75
75
71
70
68
67
63
63
62
62
61
58
56
51
51
50
49
48
48
42
40
39
37
37
36
34
32
30
29
28
28
27
26
26
